Generations:
0: ((36, 4, 48, 46, 34, 28, 2, 7, 47, 27, 42, 1, 39, 43, 12, 16, 44, 13, 11, 37, 32, 31, 49, 21, 15, 19, 25, 40, 24, 17, 33, 6, 41, 5, 18, 26, 22, 23, 20, 38, 9, 45, 14, 30, 29, 10, 35, 8, 0, 3), 1329)
1: ((36, 4, 48, 46, 34, 28, 2, 7, 47, 27, 42, 1, 39, 43, 12, 16, 44, 13, 11, 37, 32, 31, 49, 21, 15, 19, 25, 40, 24, 17, 33, 6, 41, 5, 18, 26, 22, 23, 20, 38, 9, 45, 14, 30, 29, 10, 35, 8, 0, 3), 1329)
2: ((36, 4, 48, 46, 34, 28, 2, 7, 47, 27, 42, 1, 39, 43, 12, 16, 44, 13, 11, 37, 32, 31, 49, 21, 15, 19, 25, 40, 24, 17, 33, 6, 41, 5, 18, 26, 22, 23, 20, 38, 9, 45, 14, 30, 29, 10, 35, 8, 0, 3), 1329)
3: ((36, 4, 48, 46, 34, 28, 2, 7, 47, 27, 42, 1, 39, 43, 12, 16, 44, 13, 11, 37, 32, 31, 49, 21, 15, 19, 25, 40, 24, 17, 33, 6, 41, 5, 18, 26, 22, 23, 20, 38, 9, 45, 14, 30, 29, 10, 35, 8, 0, 3), 1329)
4: ((36, 4, 48, 46, 34, 28, 2, 7, 47, 27, 42, 1, 39, 43, 12, 16, 44, 13, 11, 37, 32, 31, 49, 21, 15, 19, 25, 40, 24, 17, 33, 6, 41, 5, 18, 26, 22, 23, 20, 38, 9, 45, 14, 30, 29, 10, 35, 8, 0, 3), 1329)
5: ((36, 4, 48, 46, 34, 28, 2, 7, 47, 27, 42, 1, 39, 43, 12, 16, 44, 13, 11, 37, 32, 31, 49, 21, 15, 19, 25, 40, 24, 17, 33, 6, 41, 5, 18, 26, 22, 23, 20, 38, 9, 45, 14, 30, 29, 10, 35, 8, 0, 3), 1329)
6: ((36, 4, 48, 46, 34, 28, 2, 7, 47, 27, 42, 1, 39, 43, 12, 16, 44, 13, 11, 37, 32, 31, 49, 21, 15, 19, 25, 40, 24, 17, 33, 6, 41, 5, 18, 26, 22, 23, 20, 38, 9, 45, 14, 30, 29, 10, 35, 8, 0, 3), 1329)
7: ((36, 4, 48, 46, 34, 28, 2, 7, 47, 27, 42, 1, 39, 43, 12, 16, 44, 13, 11, 37, 32, 31, 49, 21, 15, 19, 25, 40, 24, 17, 33, 6, 41, 5, 18, 26, 22, 23, 20, 38, 9, 45, 14, 30, 29, 10, 35, 8, 0, 3), 1329)
8: ((36, 4, 48, 46, 34, 28, 2, 7, 47, 27, 42, 1, 39, 43, 12, 16, 44, 13, 11, 37, 32, 31, 49, 21, 15, 19, 25, 40, 24, 17, 33, 6, 41, 5, 18, 26, 22, 23, 20, 38, 9, 45, 14, 30, 29, 10, 35, 8, 0, 3), 1329)
9: ((36, 4, 48, 46, 34, 28, 2, 7, 47, 27, 42, 1, 39, 43, 12, 16, 44, 13, 11, 37, 32, 31, 49, 21, 15, 19, 25, 40, 24, 17, 33, 6, 41, 5, 18, 26, 22, 23, 20, 38, 9, 45, 14, 30, 29, 10, 35, 8, 0, 3), 1329)
10: ((36, 4, 48, 46, 34, 28, 2, 7, 47, 27, 42, 1, 39, 43, 12, 16, 44, 13, 11, 37, 32, 31, 49, 21, 15, 19, 25, 40, 24, 17, 33, 6, 41, 5, 18, 26, 22, 23, 20, 38, 9, 45, 14, 30, 29, 10, 35, 8, 0, 3), 1329)
11: ((36, 4, 48, 46, 34, 28, 2, 7, 47, 27, 42, 1, 39, 43, 12, 16, 44, 13, 11, 37, 32, 31, 49, 21, 15, 19, 25, 40, 24, 17, 33, 6, 41, 5, 18, 26, 22, 23, 20, 38, 9, 45, 14, 30, 29, 10, 35, 8, 0, 3), 1329)
12: ((36, 4, 48, 46, 34, 28, 2, 7, 47, 27, 42, 1, 39, 43, 12, 16, 44, 13, 11, 37, 32, 31, 49, 21, 15, 19, 25, 40, 24, 17, 33, 6, 41, 5, 18, 26, 22, 23, 20, 38, 9, 45, 14, 30, 29, 10, 35, 8, 0, 3), 1329)
13: ((36, 4, 48, 46, 34, 28, 2, 7, 47, 27, 42, 1, 39, 43, 12, 16, 44, 13, 11, 37, 32, 31, 49, 21, 15, 19, 25, 40, 24, 17, 33, 6, 41, 5, 18, 26, 22, 23, 20, 38, 9, 45, 14, 30, 29, 10, 35, 8, 0, 3), 1329)
14: ((36, 4, 48, 46, 34, 28, 2, 7, 47, 27, 42, 1, 39, 43, 12, 16, 44, 13, 11, 37, 32, 31, 49, 21, 15, 19, 25, 40, 24, 17, 33, 6, 41, 5, 18, 26, 22, 23, 20, 38, 9, 45, 14, 30, 29, 10, 35, 8, 0, 3), 1329)
15: ((36, 4, 48, 46, 34, 28, 2, 7, 47, 27, 42, 1, 39, 43, 12, 16, 44, 13, 11, 37, 32, 31, 49, 21, 15, 19, 25, 40, 24, 17, 33, 6, 41, 5, 18, 26, 22, 23, 20, 38, 9, 45, 14, 30, 29, 10, 35, 8, 0, 3), 1329)
16: ((36, 4, 48, 46, 34, 28, 2, 7, 47, 27, 42, 1, 39, 43, 12, 16, 44, 13, 11, 37, 32, 31, 49, 21, 15, 19, 25, 40, 24, 17, 33, 6, 41, 5, 18, 26, 22, 23, 20, 38, 9, 45, 14, 30, 29, 10, 35, 8, 0, 3), 1329)
17: ((36, 4, 48, 46, 34, 28, 2, 7, 47, 27, 42, 1, 39, 43, 12, 16, 44, 13, 11, 37, 32, 31, 49, 21, 15, 19, 25, 40, 24, 17, 33, 6, 41, 5, 18, 26, 22, 23, 20, 38, 9, 45, 14, 30, 29, 10, 35, 8, 0, 3), 1329)
18: ((36, 4, 48, 46, 34, 28, 2, 7, 47, 27, 42, 1, 39, 43, 12, 16, 44, 13, 11, 37, 32, 31, 49, 21, 15, 19, 25, 40, 24, 17, 33, 6, 41, 5, 18, 26, 22, 23, 20, 38, 9, 45, 14, 30, 29, 10, 35, 8, 0, 3), 1329)
19: ((36, 4, 48, 46, 34, 28, 2, 7, 47, 27, 42, 1, 39, 43, 12, 16, 44, 13, 11, 37, 32, 31, 49, 21, 15, 19, 25, 40, 24, 17, 33, 6, 41, 5, 18, 26, 22, 23, 20, 38, 9, 45, 14, 30, 29, 10, 35, 8, 0, 3), 1329)
20: ((36, 4, 48, 46, 34, 28, 2, 7, 47, 27, 42, 1, 39, 43, 12, 16, 44, 13, 11, 37, 32, 31, 49, 21, 15, 19, 25, 40, 24, 17, 33, 6, 41, 5, 18, 26, 22, 23, 20, 38, 9, 45, 14, 30, 29, 10, 35, 8, 0, 3), 1329)
21: ((36, 4, 48, 46, 34, 28, 2, 7, 47, 27, 42, 1, 39, 43, 12, 16, 44, 13, 11, 37, 32, 31, 49, 21, 15, 19, 25, 40, 24, 17, 33, 6, 41, 5, 18, 26, 22, 23, 20, 38, 9, 45, 14, 30, 29, 10, 35, 8, 0, 3), 1329)
22: ((36, 4, 48, 46, 34, 28, 2, 7, 47, 27, 42, 1, 39, 43, 12, 16, 44, 13, 11, 37, 32, 31, 49, 21, 15, 19, 25, 40, 24, 17, 33, 6, 41, 5, 18, 26, 22, 23, 20, 38, 9, 45, 14, 30, 29, 10, 35, 8, 0, 3), 1329)
23: ((36, 4, 48, 46, 34, 28, 2, 7, 47, 27, 42, 1, 39, 43, 12, 16, 44, 13, 11, 37, 32, 31, 49, 21, 15, 19, 25, 40, 24, 17, 33, 6, 41, 5, 18, 26, 22, 23, 20, 38, 9, 45, 14, 30, 29, 10, 35, 8, 0, 3), 1329)
24: ((36, 4, 48, 46, 34, 28, 2, 7, 47, 27, 42, 1, 39, 43, 12, 16, 44, 13, 11, 37, 32, 31, 49, 21, 15, 19, 25, 40, 24, 17, 33, 6, 41, 5, 18, 26, 22, 23, 20, 38, 9, 45, 14, 30, 29, 10, 35, 8, 0, 3), 1329)
25: ((36, 4, 48, 46, 34, 28, 2, 7, 47, 27, 42, 1, 39, 43, 12, 16, 44, 13, 11, 37, 32, 31, 49, 21, 15, 19, 25, 40, 24, 17, 33, 6, 41, 5, 18, 26, 22, 23, 20, 38, 9, 45, 14, 30, 29, 10, 35, 8, 0, 3), 1329)
26: ((36, 4, 48, 46, 34, 28, 2, 7, 47, 27, 42, 1, 39, 43, 12, 16, 44, 13, 11, 37, 32, 31, 49, 21, 15, 19, 25, 40, 24, 17, 33, 6, 41, 5, 18, 26, 22, 23, 20, 38, 9, 45, 14, 30, 29, 10, 35, 8, 0, 3), 1329)
27: ((36, 4, 48, 46, 34, 28, 2, 7, 47, 27, 42, 1, 39, 43, 12, 16, 44, 13, 11, 37, 32, 31, 49, 21, 15, 19, 25, 40, 24, 17, 33, 6, 41, 5, 18, 26, 22, 23, 20, 38, 9, 45, 14, 30, 29, 10, 35, 8, 0, 3), 1329)
28: ((36, 4, 48, 46, 34, 28, 2, 7, 47, 27, 42, 1, 39, 43, 12, 16, 44, 13, 11, 37, 32, 31, 49, 21, 15, 19, 25, 40, 24, 17, 33, 6, 41, 5, 18, 26, 22, 23, 20, 38, 9, 45, 14, 30, 29, 10, 35, 8, 0, 3), 1329)
29: ((36, 4, 48, 46, 34, 28, 2, 7, 47, 27, 42, 1, 39, 43, 12, 16, 44, 13, 11, 37, 32, 31, 49, 21, 15, 19, 25, 40, 24, 17, 33, 6, 41, 5, 18, 26, 22, 23, 20, 38, 9, 45, 14, 30, 29, 10, 35, 8, 0, 3), 1329)
30: ((36, 4, 48, 46, 34, 28, 2, 7, 47, 27, 42, 1, 39, 43, 12, 16, 44, 13, 11, 37, 32, 31, 49, 21, 15, 19, 25, 40, 24, 17, 33, 6, 41, 5, 18, 26, 22, 23, 20, 38, 9, 45, 14, 30, 29, 10, 35, 8, 0, 3), 1329)
31: ((36, 4, 48, 46, 34, 28, 2, 7, 47, 27, 42, 1, 39, 43, 12, 16, 44, 13, 11, 37, 32, 31, 49, 21, 15, 19, 25, 40, 24, 17, 33, 6, 41, 5, 18, 26, 22, 23, 20, 38, 9, 45, 14, 30, 29, 10, 35, 8, 0, 3), 1329)
32: ((36, 4, 48, 46, 34, 28, 2, 7, 47, 27, 42, 1, 39, 43, 12, 16, 44, 13, 11, 37, 32, 31, 49, 21, 15, 19, 25, 40, 24, 17, 33, 6, 41, 5, 18, 26, 22, 23, 20, 38, 9, 45, 14, 30, 29, 10, 35, 8, 0, 3), 1329)
33: ((36, 4, 48, 46, 34, 28, 2, 7, 47, 27, 42, 1, 39, 43, 12, 16, 44, 13, 11, 37, 32, 31, 49, 21, 15, 19, 25, 40, 24, 17, 33, 6, 41, 5, 18, 26, 22, 23, 20, 38, 9, 45, 14, 30, 29, 10, 35, 8, 0, 3), 1329)
34: ((36, 4, 48, 46, 34, 28, 2, 7, 47, 27, 42, 1, 39, 43, 12, 16, 44, 13, 11, 37, 32, 31, 49, 21, 15, 19, 25, 40, 24, 17, 33, 6, 41, 5, 18, 26, 22, 23, 20, 38, 9, 45, 14, 30, 29, 10, 35, 8, 0, 3), 1329)
35: ((36, 4, 48, 46, 34, 28, 2, 7, 47, 27, 42, 1, 39, 43, 12, 16, 44, 13, 11, 37, 32, 31, 49, 21, 15, 19, 25, 40, 24, 17, 33, 6, 41, 5, 18, 26, 22, 23, 20, 38, 9, 45, 14, 30, 29, 10, 35, 8, 0, 3), 1329)
36: ((36, 4, 48, 46, 34, 28, 2, 7, 47, 27, 42, 1, 39, 43, 12, 16, 44, 13, 11, 37, 32, 31, 49, 21, 15, 19, 25, 40, 24, 17, 33, 6, 41, 5, 18, 26, 22, 23, 20, 38, 9, 45, 14, 30, 29, 10, 35, 8, 0, 3), 1329)
37: ((36, 4, 48, 46, 34, 28, 2, 7, 47, 27, 42, 1, 39, 43, 12, 16, 44, 13, 11, 37, 32, 31, 49, 21, 15, 19, 25, 40, 24, 17, 33, 6, 41, 5, 18, 26, 22, 23, 20, 38, 9, 45, 14, 30, 29, 10, 35, 8, 0, 3), 1329)
38: ((36, 4, 48, 46, 34, 28, 2, 7, 47, 27, 42, 1, 39, 43, 12, 16, 44, 13, 11, 37, 32, 31, 49, 21, 15, 19, 25, 40, 24, 17, 33, 6, 41, 5, 18, 26, 22, 23, 20, 38, 9, 45, 14, 30, 29, 10, 35, 8, 0, 3), 1329)
39: ((36, 4, 48, 46, 34, 28, 2, 7, 47, 27, 42, 1, 39, 43, 12, 16, 44, 13, 11, 37, 32, 31, 49, 21, 15, 19, 25, 40, 24, 17, 33, 6, 41, 5, 18, 26, 22, 23, 20, 38, 9, 45, 14, 30, 29, 10, 35, 8, 0, 3), 1329)
40: ((36, 4, 48, 46, 34, 28, 2, 7, 47, 27, 42, 1, 39, 43, 12, 16, 44, 13, 11, 37, 32, 31, 49, 21, 15, 19, 25, 40, 24, 17, 33, 6, 41, 5, 18, 26, 22, 23, 20, 38, 9, 45, 14, 30, 29, 10, 35, 8, 0, 3), 1329)
41: ((36, 4, 48, 46, 34, 28, 2, 7, 47, 27, 42, 1, 39, 43, 12, 16, 44, 13, 11, 37, 32, 31, 49, 21, 15, 19, 25, 40, 24, 17, 33, 6, 41, 5, 18, 26, 22, 23, 20, 38, 9, 45, 14, 30, 29, 10, 35, 8, 0, 3), 1329)
42: ((36, 4, 48, 46, 34, 28, 2, 7, 47, 27, 42, 1, 39, 43, 12, 16, 44, 13, 11, 37, 32, 31, 49, 21, 15, 19, 25, 40, 24, 17, 33, 6, 41, 5, 18, 26, 22, 23, 20, 38, 9, 45, 14, 30, 29, 10, 35, 8, 0, 3), 1329)
43: ((36, 4, 48, 46, 34, 28, 2, 7, 47, 27, 42, 1, 39, 43, 12, 16, 44, 13, 11, 37, 32, 31, 49, 21, 15, 19, 25, 40, 24, 17, 33, 6, 41, 5, 18, 26, 22, 23, 20, 38, 9, 45, 14, 30, 29, 10, 35, 8, 0, 3), 1329)
44: ((36, 4, 48, 46, 34, 28, 2, 7, 47, 27, 42, 1, 39, 43, 12, 16, 44, 13, 11, 37, 32, 31, 49, 21, 15, 19, 25, 40, 24, 17, 33, 6, 41, 5, 18, 26, 22, 23, 20, 38, 9, 45, 14, 30, 29, 10, 35, 8, 0, 3), 1329)
45: ((36, 4, 48, 46, 34, 28, 2, 7, 47, 27, 42, 1, 39, 43, 12, 16, 44, 13, 11, 37, 32, 31, 49, 21, 15, 19, 25, 40, 24, 17, 33, 6, 41, 5, 18, 26, 22, 23, 20, 38, 9, 45, 14, 30, 29, 10, 35, 8, 0, 3), 1329)
46: ((36, 4, 48, 46, 34, 28, 2, 7, 47, 27, 42, 1, 39, 43, 12, 16, 44, 13, 11, 37, 32, 31, 49, 21, 15, 19, 25, 40, 24, 17, 33, 6, 41, 5, 18, 26, 22, 23, 20, 38, 9, 45, 14, 30, 29, 10, 35, 8, 0, 3), 1329)
47: ((36, 4, 48, 46, 34, 28, 2, 7, 47, 27, 42, 1, 39, 43, 12, 16, 44, 13, 11, 37, 32, 31, 49, 21, 15, 19, 25, 40, 24, 17, 33, 6, 41, 5, 18, 26, 22, 23, 20, 38, 9, 45, 14, 30, 29, 10, 35, 8, 0, 3), 1329)
48: ((36, 4, 48, 46, 34, 28, 2, 7, 47, 27, 42, 1, 39, 43, 12, 16, 44, 13, 11, 37, 32, 31, 49, 21, 15, 19, 25, 40, 24, 17, 33, 6, 41, 5, 18, 26, 22, 23, 20, 38, 9, 45, 14, 30, 29, 10, 35, 8, 0, 3), 1329)
49: ((36, 4, 48, 46, 34, 28, 2, 7, 47, 27, 42, 1, 39, 43, 12, 16, 44, 13, 11, 37, 32, 31, 49, 21, 15, 19, 25, 40, 24, 17, 33, 6, 41, 5, 18, 26, 22, 23, 20, 38, 9, 45, 14, 30, 29, 10, 35, 8, 0, 3), 1329)
50: ((36, 4, 48, 46, 34, 28, 2, 7, 47, 27, 42, 1, 39, 43, 12, 16, 44, 13, 11, 37, 32, 31, 49, 21, 15, 19, 25, 40, 24, 17, 33, 6, 41, 5, 18, 26, 22, 23, 20, 38, 9, 45, 14, 30, 29, 10, 35, 8, 0, 3), 1329)
51: ((36, 4, 48, 46, 34, 28, 2, 7, 47, 27, 42, 1, 39, 43, 12, 16, 44, 13, 11, 37, 32, 31, 49, 21, 15, 19, 25, 40, 24, 17, 33, 6, 41, 5, 18, 26, 22, 23, 20, 38, 9, 45, 14, 30, 29, 10, 35, 8, 0, 3), 1329)
52: ((36, 4, 48, 46, 34, 28, 2, 7, 47, 27, 42, 1, 39, 43, 12, 16, 44, 13, 11, 37, 32, 31, 49, 21, 15, 19, 25, 40, 24, 17, 33, 6, 41, 5, 18, 26, 22, 23, 20, 38, 9, 45, 14, 30, 29, 10, 35, 8, 0, 3), 1329)
53: ((36, 4, 48, 46, 34, 28, 2, 7, 47, 27, 42, 1, 39, 43, 12, 16, 44, 13, 11, 37, 32, 31, 49, 21, 15, 19, 25, 40, 24, 17, 33, 6, 41, 5, 18, 26, 22, 23, 20, 38, 9, 45, 14, 30, 29, 10, 35, 8, 0, 3), 1329)
54: ((36, 4, 48, 46, 34, 28, 2, 7, 47, 27, 42, 1, 39, 43, 12, 16, 44, 13, 11, 37, 32, 31, 49, 21, 15, 19, 25, 40, 24, 17, 33, 6, 41, 5, 18, 26, 22, 23, 20, 38, 9, 45, 14, 30, 29, 10, 35, 8, 0, 3), 1329)
55: ((36, 4, 48, 46, 34, 28, 2, 7, 47, 27, 42, 1, 39, 43, 12, 16, 44, 13, 11, 37, 32, 31, 49, 21, 15, 19, 25, 40, 24, 17, 33, 6, 41, 5, 18, 26, 22, 23, 20, 38, 9, 45, 14, 30, 29, 10, 35, 8, 0, 3), 1329)
56: ((36, 4, 48, 46, 34, 28, 2, 7, 47, 27, 42, 1, 39, 43, 12, 16, 44, 13, 11, 37, 32, 31, 49, 21, 15, 19, 25, 40, 24, 17, 33, 6, 41, 5, 18, 26, 22, 23, 20, 38, 9, 45, 14, 30, 29, 10, 35, 8, 0, 3), 1329)
57: ((36, 4, 48, 46, 34, 28, 2, 7, 47, 27, 42, 1, 39, 43, 12, 16, 44, 13, 11, 37, 32, 31, 49, 21, 15, 19, 25, 40, 24, 17, 33, 6, 41, 5, 18, 26, 22, 23, 20, 38, 9, 45, 14, 30, 29, 10, 35, 8, 0, 3), 1329)
58: ((36, 4, 48, 46, 34, 28, 2, 7, 47, 27, 42, 1, 39, 43, 12, 16, 44, 13, 11, 37, 32, 31, 49, 21, 15, 19, 25, 40, 24, 17, 33, 6, 41, 5, 18, 26, 22, 23, 20, 38, 9, 45, 14, 30, 29, 10, 35, 8, 0, 3), 1329)
59: ((36, 4, 48, 46, 34, 28, 2, 7, 47, 27, 42, 1, 39, 43, 12, 16, 44, 13, 11, 37, 32, 31, 49, 21, 15, 19, 25, 40, 24, 17, 33, 6, 41, 5, 18, 26, 22, 23, 20, 38, 9, 45, 14, 30, 29, 10, 35, 8, 0, 3), 1329)
60: ((36, 4, 48, 46, 34, 28, 2, 7, 47, 27, 42, 1, 39, 43, 12, 16, 44, 13, 11, 37, 32, 31, 49, 21, 15, 19, 25, 40, 24, 17, 33, 6, 41, 5, 18, 26, 22, 23, 20, 38, 9, 45, 14, 30, 29, 10, 35, 8, 0, 3), 1329)
61: ((36, 4, 48, 46, 34, 28, 2, 7, 47, 27, 42, 1, 39, 43, 12, 16, 44, 13, 11, 37, 32, 31, 49, 21, 15, 19, 25, 40, 24, 17, 33, 6, 41, 5, 18, 26, 22, 23, 20, 38, 9, 45, 14, 30, 29, 10, 35, 8, 0, 3), 1329)
62: ((36, 4, 48, 46, 34, 28, 2, 7, 47, 27, 42, 1, 39, 43, 12, 16, 44, 13, 11, 37, 32, 31, 49, 21, 15, 19, 25, 40, 24, 17, 33, 6, 41, 5, 18, 26, 22, 23, 20, 38, 9, 45, 14, 30, 29, 10, 35, 8, 0, 3), 1329)
63: ((36, 4, 48, 46, 34, 28, 2, 7, 47, 27, 42, 1, 39, 43, 12, 16, 44, 13, 11, 37, 32, 31, 49, 21, 15, 19, 25, 40, 24, 17, 33, 6, 41, 5, 18, 26, 22, 23, 20, 38, 9, 45, 14, 30, 29, 10, 35, 8, 0, 3), 1329)
64: ((36, 4, 48, 46, 34, 28, 2, 7, 47, 27, 42, 1, 39, 43, 12, 16, 44, 13, 11, 37, 32, 31, 49, 21, 15, 19, 25, 40, 24, 17, 33, 6, 41, 5, 18, 26, 22, 23, 20, 38, 9, 45, 14, 30, 29, 10, 35, 8, 0, 3), 1329)
65: ((36, 4, 48, 46, 34, 28, 2, 7, 47, 27, 42, 1, 39, 43, 12, 16, 44, 13, 11, 37, 32, 31, 49, 21, 15, 19, 25, 40, 24, 17, 33, 6, 41, 5, 18, 26, 22, 23, 20, 38, 9, 45, 14, 30, 29, 10, 35, 8, 0, 3), 1329)
66: ((36, 4, 48, 46, 34, 28, 2, 7, 47, 27, 42, 1, 39, 43, 12, 16, 44, 13, 11, 37, 32, 31, 49, 21, 15, 19, 25, 40, 24, 17, 33, 6, 41, 5, 18, 26, 22, 23, 20, 38, 9, 45, 14, 30, 29, 10, 35, 8, 0, 3), 1329)
67: ((36, 4, 48, 46, 34, 28, 2, 7, 47, 27, 42, 1, 39, 43, 12, 16, 44, 13, 11, 37, 32, 31, 49, 21, 15, 19, 25, 40, 24, 17, 33, 6, 41, 5, 18, 26, 22, 23, 20, 38, 9, 45, 14, 30, 29, 10, 35, 8, 0, 3), 1329)
68: ((36, 4, 48, 46, 34, 28, 2, 7, 47, 27, 42, 1, 39, 43, 12, 16, 44, 13, 11, 37, 32, 31, 49, 21, 15, 19, 25, 40, 24, 17, 33, 6, 41, 5, 18, 26, 22, 23, 20, 38, 9, 45, 14, 30, 29, 10, 35, 8, 0, 3), 1329)
69: ((36, 4, 48, 46, 34, 28, 2, 7, 47, 27, 42, 1, 39, 43, 12, 16, 44, 13, 11, 37, 32, 31, 49, 21, 15, 19, 25, 40, 24, 17, 33, 6, 41, 5, 18, 26, 22, 23, 20, 38, 9, 45, 14, 30, 29, 10, 35, 8, 0, 3), 1329)
70: ((36, 4, 48, 46, 34, 28, 2, 7, 47, 27, 42, 1, 39, 43, 12, 16, 44, 13, 11, 37, 32, 31, 49, 21, 15, 19, 25, 40, 24, 17, 33, 6, 41, 5, 18, 26, 22, 23, 20, 38, 9, 45, 14, 30, 29, 10, 35, 8, 0, 3), 1329)
71: ((36, 4, 48, 46, 34, 28, 2, 7, 47, 27, 42, 1, 39, 43, 12, 16, 44, 13, 11, 37, 32, 31, 49, 21, 15, 19, 25, 40, 24, 17, 33, 6, 41, 5, 18, 26, 22, 23, 20, 38, 9, 45, 14, 30, 29, 10, 35, 8, 0, 3), 1329)
72: ((36, 4, 48, 46, 34, 28, 2, 7, 47, 27, 42, 1, 39, 43, 12, 16, 44, 13, 11, 37, 32, 31, 49, 21, 15, 19, 25, 40, 24, 17, 33, 6, 41, 5, 18, 26, 22, 23, 20, 38, 9, 45, 14, 30, 29, 10, 35, 8, 0, 3), 1329)
73: ((36, 4, 48, 46, 34, 28, 2, 7, 47, 27, 42, 1, 39, 43, 12, 16, 44, 13, 11, 37, 32, 31, 49, 21, 15, 19, 25, 40, 24, 17, 33, 6, 41, 5, 18, 26, 22, 23, 20, 38, 9, 45, 14, 30, 29, 10, 35, 8, 0, 3), 1329)
74: ((36, 4, 48, 46, 34, 28, 2, 7, 47, 27, 42, 1, 39, 43, 12, 16, 44, 13, 11, 37, 32, 31, 49, 21, 15, 19, 25, 40, 24, 17, 33, 6, 41, 5, 18, 26, 22, 23, 20, 38, 9, 45, 14, 30, 29, 10, 35, 8, 0, 3), 1329)
75: ((36, 4, 48, 46, 34, 28, 2, 7, 47, 27, 42, 1, 39, 43, 12, 16, 44, 13, 11, 37, 32, 31, 49, 21, 15, 19, 25, 40, 24, 17, 33, 6, 41, 5, 18, 26, 22, 23, 20, 38, 9, 45, 14, 30, 29, 10, 35, 8, 0, 3), 1329)
76: ((36, 4, 48, 46, 34, 28, 2, 7, 47, 27, 42, 1, 39, 43, 12, 16, 44, 13, 11, 37, 32, 31, 49, 21, 15, 19, 25, 40, 24, 17, 33, 6, 41, 5, 18, 26, 22, 23, 20, 38, 9, 45, 14, 30, 29, 10, 35, 8, 0, 3), 1329)
77: ((36, 4, 48, 46, 34, 28, 2, 7, 47, 27, 42, 1, 39, 43, 12, 16, 44, 13, 11, 37, 32, 31, 49, 21, 15, 19, 25, 40, 24, 17, 33, 6, 41, 5, 18, 26, 22, 23, 20, 38, 9, 45, 14, 30, 29, 10, 35, 8, 0, 3), 1329)
78: ((36, 4, 48, 46, 34, 28, 2, 7, 47, 27, 42, 1, 39, 43, 12, 16, 44, 13, 11, 37, 32, 31, 49, 21, 15, 19, 25, 40, 24, 17, 33, 6, 41, 5, 18, 26, 22, 23, 20, 38, 9, 45, 14, 30, 29, 10, 35, 8, 0, 3), 1329)
79: ((36, 4, 48, 46, 34, 28, 2, 7, 47, 27, 42, 1, 39, 43, 12, 16, 44, 13, 11, 37, 32, 31, 49, 21, 15, 19, 25, 40, 24, 17, 33, 6, 41, 5, 18, 26, 22, 23, 20, 38, 9, 45, 14, 30, 29, 10, 35, 8, 0, 3), 1329)
80: ((36, 4, 48, 46, 34, 28, 2, 7, 47, 27, 42, 1, 39, 43, 12, 16, 44, 13, 11, 37, 32, 31, 49, 21, 15, 19, 25, 40, 24, 17, 33, 6, 41, 5, 18, 26, 22, 23, 20, 38, 9, 45, 14, 30, 29, 10, 35, 8, 0, 3), 1329)
81: ((36, 4, 48, 46, 34, 28, 2, 7, 47, 27, 42, 1, 39, 43, 12, 16, 44, 13, 11, 37, 32, 31, 49, 21, 15, 19, 25, 40, 24, 17, 33, 6, 41, 5, 18, 26, 22, 23, 20, 38, 9, 45, 14, 30, 29, 10, 35, 8, 0, 3), 1329)
82: ((36, 4, 48, 46, 34, 28, 2, 7, 47, 27, 42, 1, 39, 43, 12, 16, 44, 13, 11, 37, 32, 31, 49, 21, 15, 19, 25, 40, 24, 17, 33, 6, 41, 5, 18, 26, 22, 23, 20, 38, 9, 45, 14, 30, 29, 10, 35, 8, 0, 3), 1329)
83: ((36, 4, 48, 46, 34, 28, 2, 7, 47, 27, 42, 1, 39, 43, 12, 16, 44, 13, 11, 37, 32, 31, 49, 21, 15, 19, 25, 40, 24, 17, 33, 6, 41, 5, 18, 26, 22, 23, 20, 38, 9, 45, 14, 30, 29, 10, 35, 8, 0, 3), 1329)
84: ((36, 4, 48, 46, 34, 28, 2, 7, 47, 27, 42, 1, 39, 43, 12, 16, 44, 13, 11, 37, 32, 31, 49, 21, 15, 19, 25, 40, 24, 17, 33, 6, 41, 5, 18, 26, 22, 23, 20, 38, 9, 45, 14, 30, 29, 10, 35, 8, 0, 3), 1329)
85: ((36, 4, 48, 46, 34, 28, 2, 7, 47, 27, 42, 1, 39, 43, 12, 16, 44, 13, 11, 37, 32, 31, 49, 21, 15, 19, 25, 40, 24, 17, 33, 6, 41, 5, 18, 26, 22, 23, 20, 38, 9, 45, 14, 30, 29, 10, 35, 8, 0, 3), 1329)
86: ((36, 4, 48, 46, 34, 28, 2, 7, 47, 27, 42, 1, 39, 43, 12, 16, 44, 13, 11, 37, 32, 31, 49, 21, 15, 19, 25, 40, 24, 17, 33, 6, 41, 5, 18, 26, 22, 23, 20, 38, 9, 45, 14, 30, 29, 10, 35, 8, 0, 3), 1329)
87: ((36, 4, 48, 46, 34, 28, 2, 7, 47, 27, 42, 1, 39, 43, 12, 16, 44, 13, 11, 37, 32, 31, 49, 21, 15, 19, 25, 40, 24, 17, 33, 6, 41, 5, 18, 26, 22, 23, 20, 38, 9, 45, 14, 30, 29, 10, 35, 8, 0, 3), 1329)
88: ((36, 4, 48, 46, 34, 28, 2, 7, 47, 27, 42, 1, 39, 43, 12, 16, 44, 13, 11, 37, 32, 31, 49, 21, 15, 19, 25, 40, 24, 17, 33, 6, 41, 5, 18, 26, 22, 23, 20, 38, 9, 45, 14, 30, 29, 10, 35, 8, 0, 3), 1329)
89: ((36, 4, 48, 46, 34, 28, 2, 7, 47, 27, 42, 1, 39, 43, 12, 16, 44, 13, 11, 37, 32, 31, 49, 21, 15, 19, 25, 40, 24, 17, 33, 6, 41, 5, 18, 26, 22, 23, 20, 38, 9, 45, 14, 30, 29, 10, 35, 8, 0, 3), 1329)
90: ((36, 4, 48, 46, 34, 28, 2, 7, 47, 27, 42, 1, 39, 43, 12, 16, 44, 13, 11, 37, 32, 31, 49, 21, 15, 19, 25, 40, 24, 17, 33, 6, 41, 5, 18, 26, 22, 23, 20, 38, 9, 45, 14, 30, 29, 10, 35, 8, 0, 3), 1329)
91: ((36, 4, 48, 46, 34, 28, 2, 7, 47, 27, 42, 1, 39, 43, 12, 16, 44, 13, 11, 37, 32, 31, 49, 21, 15, 19, 25, 40, 24, 17, 33, 6, 41, 5, 18, 26, 22, 23, 20, 38, 9, 45, 14, 30, 29, 10, 35, 8, 0, 3), 1329)
92: ((36, 4, 48, 46, 34, 28, 2, 7, 47, 27, 42, 1, 39, 43, 12, 16, 44, 13, 11, 37, 32, 31, 49, 21, 15, 19, 25, 40, 24, 17, 33, 6, 41, 5, 18, 26, 22, 23, 20, 38, 9, 45, 14, 30, 29, 10, 35, 8, 0, 3), 1329)
93: ((36, 4, 48, 46, 34, 28, 2, 7, 47, 27, 42, 1, 39, 43, 12, 16, 44, 13, 11, 37, 32, 31, 49, 21, 15, 19, 25, 40, 24, 17, 33, 6, 41, 5, 18, 26, 22, 23, 20, 38, 9, 45, 14, 30, 29, 10, 35, 8, 0, 3), 1329)
94: ((36, 4, 48, 46, 34, 28, 2, 7, 47, 27, 42, 1, 39, 43, 12, 16, 44, 13, 11, 37, 32, 31, 49, 21, 15, 19, 25, 40, 24, 17, 33, 6, 41, 5, 18, 26, 22, 23, 20, 38, 9, 45, 14, 30, 29, 10, 35, 8, 0, 3), 1329)
95: ((36, 4, 48, 46, 34, 28, 2, 7, 47, 27, 42, 1, 39, 43, 12, 16, 44, 13, 11, 37, 32, 31, 49, 21, 15, 19, 25, 40, 24, 17, 33, 6, 41, 5, 18, 26, 22, 23, 20, 38, 9, 45, 14, 30, 29, 10, 35, 8, 0, 3), 1329)
Best: ((36, 4, 48, 46, 34, 28, 2, 7, 47, 27, 42, 1, 39, 43, 12, 16, 44, 13, 11, 37, 32, 31, 49, 21, 15, 19, 25, 40, 24, 17, 33, 6, 41, 5, 18, 26, 22, 23, 20, 38, 9, 45, 14, 30, 29, 10, 35, 8, 0, 3), 1329)
Runtime: 21.1037268 s